presolving:
(round 1, fast)       8893 del vars, 17346 del conss, 0 add conss, 17746 chg bounds, 0 chg sides, 0 chg coeffs, 0 upgd conss, 0 impls, 0 clqs
(round 2, fast)       8894 del vars, 17787 del conss, 0 add conss, 17746 chg bounds, 0 chg sides, 0 chg coeffs, 0 upgd conss, 0 impls, 0 clqs
   (0.2s) running MILP presolver
   (0.2s) MILP presolver found nothing
   (0.2s) probing: 51/248 (20.6%) - 0 fixings, 0 aggregations, 0 implications, 0 bound changes
   (0.2s) probing aborted: 50/50 successive totally useless probings
   (0.2s) symmetry computation started: requiring (bin +, int -, cont +), (fixed: bin -, int +, cont -)
   (0.3s) no symmetry present
presolving (3 rounds: 3 fast, 1 medium, 1 exhaustive):
 9335 deleted vars, 17829 deleted constraints, 0 added constraints, 17746 tightened bounds, 0 added holes, 0 changed sides, 0 changed coefficients
 0 implications, 0 cliques
presolved problem has 8680 variables (248 bin, 0 int, 0 impl, 8432 cont) and 983 constraints
    983 constraints of type <linear>
Presolving Time: 0.21

 time | node  | left  |LP iter|LP it/n|mem/heur|mdpt |vars |cons |rows |cuts |sepa|confs|strbr|  dualbound   | primalbound  |  gap   | compl. 
p 0.3s|     1 |     0 |   155 |     - |   locks|   0 |8680 | 983 | 983 |   0 |  0 |   0 |   0 |-9.026000e+03 | 3.080203e+06 |    Inf | unknown
i 0.3s|     1 |     0 |   155 |     - |  oneopt|   0 |8680 | 983 | 983 |   0 |  0 |   0 |   0 |-9.026000e+03 | 1.010260e+06 |    Inf | unknown
  0.3s|     1 |     0 |   484 |     - |   106M |   0 |8680 | 983 | 983 |   0 |  0 |   0 |   0 | 5.659305e+05 | 1.010260e+06 |  78.51%| unknown
r 0.3s|     1 |     0 |   484 |     - |simplero|   0 |8680 | 983 | 983 |   0 |  0 |   0 |   0 | 5.659305e+05 | 8.339790e+05 |  47.36%| unknown
  0.4s|     1 |     0 |   662 |     - |   110M |   0 |8680 | 983 |1040 |  57 |  1 |   0 |   0 | 6.879083e+05 | 8.339790e+05 |  21.23%| unknown
  0.4s|     1 |     0 |   764 |     - |   111M |   0 |8680 | 983 |1073 |  90 |  2 |   0 |   0 | 7.279755e+05 | 8.339790e+05 |  14.56%| unknown
  0.5s|     1 |     0 |   846 |     - |   111M |   0 |8680 | 983 |1101 | 118 |  3 |   0 |   0 | 7.401136e+05 | 8.339790e+05 |  12.68%| unknown
  0.5s|     1 |     0 |   944 |     - |   113M |   0 |8680 | 983 |1122 | 139 |  4 |   0 |   0 | 7.519347e+05 | 8.339790e+05 |  10.91%| unknown
  0.6s|     1 |     0 |  1072 |     - |   116M |   0 |8680 | 983 |1147 | 164 |  5 |   0 |   0 | 7.684182e+05 | 8.339790e+05 |   8.53%| unknown
  0.7s|     1 |     0 |  1241 |     - |   117M |   0 |8680 | 983 |1166 | 183 |  6 |   0 |   0 | 7.764411e+05 | 8.339790e+05 |   7.41%| unknown
  0.8s|     1 |     0 |  1283 |     - |   117M |   0 |8680 | 983 |1177 | 194 |  7 |   0 |   0 | 7.786003e+05 | 8.339790e+05 |   7.11%| unknown
  0.9s|     1 |     0 |  1432 |     - |   117M |   0 |8680 | 983 |1189 | 206 |  8 |   0 |   0 | 7.813778e+05 | 8.339790e+05 |   6.73%| unknown
  1.0s|     1 |     0 |  1524 |     - |   118M |   0 |8680 | 983 |1199 | 216 |  9 |   0 |   0 | 7.825136e+05 | 8.339790e+05 |   6.58%| unknown
  1.1s|     1 |     0 |  1639 |     - |   118M |   0 |8680 | 983 |1209 | 226 | 10 |   0 |   0 | 7.834715e+05 | 8.339790e+05 |   6.45%| unknown
  1.2s|     1 |     0 |  1703 |     - |   118M |   0 |8680 | 983 |1214 | 231 | 11 |   0 |   0 | 7.845184e+05 | 8.339790e+05 |   6.30%| unknown
 time | node  | left  |LP iter|LP it/n|mem/heur|mdpt |vars |cons |rows |cuts |sepa|confs|strbr|  dualbound   | primalbound  |  gap   | compl. 
  1.3s|     1 |     0 |  1716 |     - |   118M |   0 |8680 | 983 |1216 | 233 | 12 |   0 |   0 | 7.848281e+05 | 8.339790e+05 |   6.26%| unknown
  1.3s|     1 |     0 |  1898 |     - |   120M |   0 |8680 | 983 |1221 | 238 | 13 |   0 |   0 | 7.863076e+05 | 8.339790e+05 |   6.06%| unknown
  1.4s|     1 |     0 |  2001 |     - |   120M |   0 |8680 | 983 |1230 | 247 | 14 |   0 |   0 | 7.872208e+05 | 8.339790e+05 |   5.94%| unknown
  1.5s|     1 |     0 |  2105 |     - |   120M |   0 |8680 | 983 |1233 | 250 | 15 |   0 |   0 | 7.874108e+05 | 8.339790e+05 |   5.91%| unknown
  1.6s|     1 |     0 |  2178 |     - |   120M |   0 |8680 | 983 |1184 | 256 | 16 |   0 |   0 | 7.875608e+05 | 8.339790e+05 |   5.89%| unknown
  1.6s|     1 |     0 |  2246 |     - |   120M |   0 |8680 | 983 |1192 | 264 | 17 |   0 |   0 | 7.876136e+05 | 8.339790e+05 |   5.89%| unknown
  1.8s|     1 |     0 |  2554 |     - |   121M |   0 |8680 | 983 |1202 | 274 | 18 |   0 |   0 | 7.883944e+05 | 8.339790e+05 |   5.78%| unknown
  1.9s|     1 |     0 |  2683 |     - |   121M |   0 |8680 | 983 |1209 | 281 | 19 |   0 |   0 | 7.887957e+05 | 8.339790e+05 |   5.73%| unknown
  2.0s|     1 |     0 |  2855 |     - |   121M |   0 |8680 | 983 |1215 | 287 | 20 |   0 |   0 | 7.894540e+05 | 8.339790e+05 |   5.64%| unknown
  2.2s|     1 |     0 |  3023 |     - |   121M |   0 |8680 | 983 |1224 | 296 | 21 |   0 |   0 | 7.897930e+05 | 8.339790e+05 |   5.59%| unknown
  2.3s|     1 |     0 |  3099 |     - |   121M |   0 |8680 | 983 |1206 | 305 | 22 |   0 |   0 | 7.899714e+05 | 8.339790e+05 |   5.57%| unknown
  2.4s|     1 |     0 |  3188 |     - |   121M |   0 |8680 | 983 |1215 | 314 | 23 |   0 |   0 | 7.901937e+05 | 8.339790e+05 |   5.54%| unknown
  2.5s|     1 |     0 |  3271 |     - |   121M |   0 |8680 | 983 |1218 | 317 | 24 |   0 |   0 | 7.903893e+05 | 8.339790e+05 |   5.51%| unknown
  2.6s|     1 |     0 |  3350 |     - |   122M |   0 |8680 | 983 |1222 | 321 | 25 |   0 |   0 | 7.905903e+05 | 8.339790e+05 |   5.49%| unknown
  2.7s|     1 |     0 |  3448 |     - |   122M |   0 |8680 | 983 |1230 | 329 | 26 |   0 |   0 | 7.908125e+05 | 8.339790e+05 |   5.46%| unknown
 time | node  | left  |LP iter|LP it/n|mem/heur|mdpt |vars |cons |rows |cuts |sepa|confs|strbr|  dualbound   | primalbound  |  gap   | compl. 
  2.8s|     1 |     0 |  3503 |     - |   122M |   0 |8680 | 983 |1238 | 337 | 27 |   0 |   0 | 7.908555e+05 | 8.339790e+05 |   5.45%| unknown
  2.9s|     1 |     0 |  3637 |     - |   122M |   0 |8680 | 983 |1224 | 345 | 28 |   0 |   0 | 7.909255e+05 | 8.339790e+05 |   5.44%| unknown
  3.0s|     1 |     0 |  3750 |     - |   123M |   0 |8680 | 983 |1230 | 351 | 29 |   0 |   0 | 7.910464e+05 | 8.339790e+05 |   5.43%| unknown
  3.2s|     1 |     0 |  3925 |     - |   123M |   0 |8680 | 983 |1234 | 355 | 30 |   0 |   0 | 7.912065e+05 | 8.339790e+05 |   5.41%| unknown
  3.3s|     1 |     0 |  4046 |     - |   123M |   0 |8680 | 983 |1245 | 366 | 31 |   0 |   0 | 7.912819e+05 | 8.339790e+05 |   5.40%| unknown
  3.5s|     1 |     0 |  4189 |     - |   123M |   0 |8680 | 983 |1253 | 374 | 32 |   0 |   0 | 7.914835e+05 | 8.339790e+05 |   5.37%| unknown
  3.6s|     1 |     0 |  4282 |     - |   123M |   0 |8680 | 983 |1262 | 383 | 33 |   0 |   0 | 7.915565e+05 | 8.339790e+05 |   5.36%| unknown
  3.8s|     1 |     0 |  4481 |     - |   123M |   0 |8680 | 983 |1245 | 393 | 34 |   0 |   0 | 7.917684e+05 | 8.339790e+05 |   5.33%| unknown
  3.9s|     1 |     0 |  4594 |     - |   123M |   0 |8680 | 983 |1250 | 398 | 35 |   0 |   0 | 7.918582e+05 | 8.339790e+05 |   5.32%| unknown
  4.1s|     1 |     0 |  4670 |     - |   123M |   0 |8680 | 983 |1256 | 404 | 36 |   0 |   0 | 7.919056e+05 | 8.339790e+05 |   5.31%| unknown
  4.2s|     1 |     0 |  4774 |     - |   124M |   0 |8680 | 983 |1269 | 417 | 37 |   0 |   0 | 7.919474e+05 | 8.339790e+05 |   5.31%| unknown
  4.4s|     1 |     0 |  4909 |     - |   125M |   0 |8680 | 983 |1272 | 420 | 38 |   0 |   0 | 7.919894e+05 | 8.339790e+05 |   5.30%| unknown
  4.5s|     1 |     0 |  5092 |     - |   126M |   0 |8680 | 983 |1279 | 427 | 39 |   0 |   0 | 7.920413e+05 | 8.339790e+05 |   5.29%| unknown
  4.7s|     1 |     0 |  5146 |     - |   126M |   0 |8680 | 983 |1251 | 430 | 40 |   0 |   0 | 7.920701e+05 | 8.339790e+05 |   5.29%| unknown
  4.9s|     1 |     0 |  5253 |     - |   126M |   0 |8680 | 983 |1256 | 435 | 41 |   0 |   0 | 7.921162e+05 | 8.339790e+05 |   5.28%| unknown
 time | node  | left  |LP iter|LP it/n|mem/heur|mdpt |vars |cons |rows |cuts |sepa|confs|strbr|  dualbound   | primalbound  |  gap   | compl. 
  5.0s|     1 |     0 |  5290 |     - |   126M |   0 |8680 | 983 |1260 | 439 | 42 |   0 |   0 | 7.921255e+05 | 8.339790e+05 |   5.28%| unknown
  5.2s|     1 |     0 |  5361 |     - |   126M |   0 |8680 | 983 |1263 | 442 | 43 |   0 |   0 | 7.921390e+05 | 8.339790e+05 |   5.28%| unknown
  5.4s|     1 |     0 |  5460 |     - |   126M |   0 |8680 | 983 |1267 | 446 | 44 |   0 |   0 | 7.921805e+05 | 8.339790e+05 |   5.28%| unknown
  5.6s|     1 |     0 |  5525 |     - |   126M |   0 |8680 | 983 |1271 | 450 | 45 |   0 |   0 | 7.922142e+05 | 8.339790e+05 |   5.27%| unknown
  5.6s|     1 |     0 |  5666 |     - |   126M |   0 |8680 | 983 |1240 | 455 | 46 |   0 |   0 | 7.922428e+05 | 8.339790e+05 |   5.27%| unknown
L10.0s|     1 |     0 |  9420 |     - |    rens|   0 |8680 | 983 |1240 | 455 | 46 |   0 |   0 | 7.922428e+05 | 7.947806e+05 |   0.32%| unknown
 10.1s|     1 |     0 |  9420 |     - |   134M |   0 |8680 | 983 |1240 | 455 | 46 |   0 |   0 | 7.922428e+05 | 7.947806e+05 |   0.32%| unknown
 10.1s|     1 |     0 |  9508 |     - |   136M |   0 |8680 | 983 |1240 | 455 | 46 |   0 |   0 | 7.922537e+05 | 7.947806e+05 |   0.32%| unknown
 10.3s|     1 |     0 |  9582 |     - |   136M |   0 |8680 | 983 |1244 | 459 | 47 |   0 |   0 | 7.922823e+05 | 7.947806e+05 |   0.32%| unknown
 10.3s|     1 |     0 |  9643 |     - |   136M |   0 |8680 | 983 |1248 | 463 | 48 |   0 |   0 | 7.922996e+05 | 7.947806e+05 |   0.31%| unknown
 10.4s|     1 |     0 |  9643 |     - |   136M |   0 |8680 | 888 |1248 | 463 | 48 |   0 |   0 | 7.922996e+05 | 7.947806e+05 |   0.31%| unknown
 10.5s|     1 |     0 |  9812 |     - |   136M |   0 |8680 | 888 |1259 | 474 | 49 |   0 |   0 | 7.924269e+05 | 7.947806e+05 |   0.30%| unknown
 10.6s|     1 |     0 |  9869 |     - |   136M |   0 |8680 | 888 |1242 | 478 | 50 |   0 |   0 | 7.924563e+05 | 7.947806e+05 |   0.29%| unknown
(run 1, node 1) restarting after 96 global fixings of integer variables

(restart) converted 256 cuts from the global cut pool into linear constraints

presolving:
(round 1, fast)       3326 del vars, 3 del conss, 0 add conss, 0 chg bounds, 0 chg sides, 9 chg coeffs, 0 upgd conss, 0 impls, 0 clqs
   (10.9s) running MILP presolver
   (10.9s) MILP presolver (2 rounds): 0 aggregations, 0 fixings, 2 bound changes
(round 2, exhaustive) 3326 del vars, 3 del conss, 0 add conss, 2 chg bounds, 0 chg sides, 9 chg coeffs, 3 upgd conss, 0 impls, 0 clqs
presolving (3 rounds: 3 fast, 2 medium, 2 exhaustive):
 3326 deleted vars, 3 deleted constraints, 0 added constraints, 2 tightened bounds, 0 added holes, 0 changed sides, 9 changed coefficients
 0 implications, 0 cliques
presolved problem has 5354 variables (152 bin, 0 int, 0 impl, 5202 cont) and 1141 constraints
   1138 constraints of type <linear>
      3 constraints of type <logicor>
Presolving Time: 0.52
transformed 19/100 original solutions to the transformed problem space

 time | node  | left  |LP iter|LP it/n|mem/heur|mdpt |vars |cons |rows |cuts |sepa|confs|strbr|  dualbound   | primalbound  |  gap   | compl. 
 11.5s|     1 |     0 | 13297 |     - |   172M |   0 |5354 |1141 |1141 |   0 |  0 |   0 |   0 | 7.924563e+05 | 7.947806e+05 |   0.29%| unknown
 11.5s|     1 |     0 | 13297 |     - |   172M |   0 |5354 |1141 |1141 |   0 |  0 |   0 |   0 | 7.924563e+05 | 7.947806e+05 |   0.29%| unknown
 11.7s|     1 |     0 | 13658 |     - |   173M |   0 |5354 |1141 |1156 |  15 |  1 |   0 |   0 | 7.924563e+05 | 7.947806e+05 |   0.29%| unknown
 11.7s|     1 |     0 | 13658 |     - |   173M |   0 |5354 |1141 |1156 |  15 |  1 |   0 |   0 | 7.924563e+05 | 7.947806e+05 |   0.29%| unknown
 11.8s|     1 |     0 | 13770 |     - |   173M |   0 |5354 |1141 |1162 |  21 |  2 |   0 |   0 | 7.925109e+05 | 7.947806e+05 |   0.29%| unknown
 12.0s|     1 |     0 | 13904 |     - |   173M |   0 |5354 |1141 |1167 |  26 |  3 |   0 |   0 | 7.925567e+05 | 7.947806e+05 |   0.28%| unknown
 12.1s|     1 |     0 | 14032 |     - |   173M |   0 |5354 |1141 |1174 |  33 |  4 |   0 |   0 | 7.925898e+05 | 7.947806e+05 |   0.28%| unknown
 12.1s|     1 |     0 | 14032 |     - |   173M |   0 |5354 |1141 |1174 |  33 |  4 |   0 |   0 | 7.925898e+05 | 7.947806e+05 |   0.28%| unknown
 12.2s|     1 |     0 | 14134 |     - |   174M |   0 |5354 |1141 |1179 |  38 |  5 |   0 |   0 | 7.926157e+05 | 7.947806e+05 |   0.27%| unknown
 12.4s|     1 |     0 | 14225 |     - |   174M |   0 |5354 |1141 |1183 |  42 |  6 |   0 |   0 | 7.926419e+05 | 7.947806e+05 |   0.27%| unknown
 12.5s|     1 |     0 | 14325 |     - |   174M |   0 |5354 |1141 |1187 |  46 |  7 |   0 |   0 | 7.926730e+05 | 7.947806e+05 |   0.27%| unknown
 12.7s|     1 |     0 | 14364 |     - |   174M |   0 |5354 |1141 |1189 |  48 |  8 |   0 |   0 | 7.926889e+05 | 7.947806e+05 |   0.26%| unknown
 12.8s|     1 |     0 | 14388 |     - |   174M |   0 |5354 |1141 |1191 |  50 |  9 |   0 |   0 | 7.926944e+05 | 7.947806e+05 |   0.26%| unknown
 12.9s|     1 |     0 | 14509 |     - |   174M |   0 |5354 |1141 |1194 |  53 | 10 |   0 |   0 | 7.927114e+05 | 7.947806e+05 |   0.26%| unknown
 13.1s|     1 |     0 | 14604 |     - |   174M |   0 |5354 |1141 |1149 |  55 | 11 |   0 |   0 | 7.927547e+05 | 7.947806e+05 |   0.26%| unknown
 time | node  | left  |LP iter|LP it/n|mem/heur|mdpt |vars |cons |rows |cuts |sepa|confs|strbr|  dualbound   | primalbound  |  gap   | compl. 
 13.1s|     1 |     0 | 14604 |     - |   174M |   0 |5354 |1125 |1149 |  55 | 11 |   0 |   0 | 7.927547e+05 | 7.947806e+05 |   0.26%| unknown
 13.2s|     1 |     0 | 14705 |     - |   174M |   0 |5354 |1125 |1153 |  59 | 12 |   0 |   0 | 7.927750e+05 | 7.947806e+05 |   0.25%| unknown
 13.4s|     1 |     0 | 14776 |     - |   174M |   0 |5354 |1125 |1160 |  66 | 13 |   0 |   0 | 7.927973e+05 | 7.947806e+05 |   0.25%| unknown
 13.5s|     1 |     0 | 14877 |     - |   175M |   0 |5354 |1125 |1163 |  69 | 14 |   0 |   0 | 7.928159e+05 | 7.947806e+05 |   0.25%| unknown
 13.7s|     1 |     0 | 14940 |     - |   175M |   0 |5354 |1125 |1169 |  75 | 15 |   0 |   0 | 7.928425e+05 | 7.947806e+05 |   0.24%| unknown
 13.8s|     1 |     0 | 15016 |     - |   175M |   0 |5354 |1125 |1171 |  77 | 16 |   0 |   0 | 7.928641e+05 | 7.947806e+05 |   0.24%| unknown
 13.9s|     1 |     0 | 15118 |     - |   175M |   0 |5354 |1125 |1143 |  84 | 17 |   0 |   0 | 7.928951e+05 | 7.947806e+05 |   0.24%| unknown
 14.0s|     1 |     0 | 15118 |     - |   175M |   0 |5354 |1125 |1133 |  84 | 17 |   0 |   0 | 7.928951e+05 | 7.947806e+05 |   0.24%| unknown
 14.1s|     1 |     0 | 15192 |     - |   175M |   0 |5354 |1125 |1139 |  90 | 18 |   0 |   0 | 7.929305e+05 | 7.947806e+05 |   0.23%| unknown
 14.2s|     1 |     0 | 15250 |     - |   175M |   0 |5354 |1125 |1141 |  92 | 19 |   0 |   0 | 7.929575e+05 | 7.947806e+05 |   0.23%| unknown
 14.3s|     1 |     0 | 15342 |     - |   175M |   0 |5354 |1125 |1145 |  96 | 20 |   0 |   0 | 7.929778e+05 | 7.947806e+05 |   0.23%| unknown
 14.4s|     1 |     0 | 15394 |     - |   175M |   0 |5354 |1125 |1149 | 100 | 21 |   0 |   0 | 7.929850e+05 | 7.947806e+05 |   0.23%| unknown
 14.5s|     1 |     0 | 15435 |     - |   175M |   0 |5354 |1125 |1152 | 103 | 22 |   0 |   0 | 7.929927e+05 | 7.947806e+05 |   0.23%| unknown
 14.7s|     1 |     0 | 15476 |     - |   175M |   0 |5354 |1125 |1139 | 107 | 23 |   0 |   0 | 7.930076e+05 | 7.947806e+05 |   0.22%| unknown
 17.0s|     1 |     0 | 17397 |     - |   176M |   0 |5354 |1129 |1139 | 107 | 23 |7966 |   9 | 7.934815e+05 | 7.947806e+05 |   0.16%| unknown
(run 2, node 1) restarting after 16 global fixings of integer variables

(restart) converted 88 cuts from the global cut pool into linear constraints

presolving:
(round 1, fast)       526 del vars, 17 del conss, 0 add conss, 574 chg bounds, 0 chg sides, 7 chg coeffs, 0 upgd conss, 0 impls, 0 clqs
(round 2, exhaustive) 526 del vars, 17 del conss, 0 add conss, 593 chg bounds, 0 chg sides, 7 chg coeffs, 3 upgd conss, 0 impls, 0 clqs
(round 3, exhaustive) 526 del vars, 23 del conss, 0 add conss, 593 chg bounds, 6 chg sides, 7 chg coeffs, 3 upgd conss, 0 impls, 0 clqs
presolving (4 rounds: 4 fast, 3 medium, 3 exhaustive):
 526 deleted vars, 23 deleted constraints, 0 added constraints, 593 tightened bounds, 0 added holes, 6 changed sides, 8 changed coefficients
 0 implications, 0 cliques
presolved problem has 4828 variables (136 bin, 0 int, 0 impl, 4692 cont) and 1194 constraints
   1184 constraints of type <linear>
     10 constraints of type <logicor>
Presolving Time: 0.67
transformed 16/100 original solutions to the transformed problem space

 time | node  | left  |LP iter|LP it/n|mem/heur|mdpt |vars |cons |rows |cuts |sepa|confs|strbr|  dualbound   | primalbound  |  gap   | compl. 
 17.8s|     1 |     0 | 20811 |     - |   178M |   0 |4828 |1194 |1190 |   0 |  0 |7966 |   9 | 7.934815e+05 | 7.947806e+05 |   0.16%| unknown
 17.8s|     1 |     0 | 20811 |     - |   178M |   0 |4828 |1194 |1190 |   0 |  0 |7966 |   9 | 7.934815e+05 | 7.947806e+05 |   0.16%| unknown
 18.0s|     1 |     0 | 21014 |     - |   178M |   0 |4828 |1194 |1198 |   8 |  1 |7966 |   9 | 7.934815e+05 | 7.947806e+05 |   0.16%| unknown
 18.0s|     1 |     0 | 21014 |     - |   179M |   0 |4828 |1194 |1198 |   8 |  1 |7966 |   9 | 7.934815e+05 | 7.947806e+05 |   0.16%| unknown
 18.1s|     1 |     0 | 21140 |     - |   179M |   0 |4828 |1194 |1205 |  15 |  2 |7966 |   9 | 7.934815e+05 | 7.947806e+05 |   0.16%| unknown
 18.3s|     1 |     0 | 21203 |     - |   179M |   0 |4828 |1194 |1208 |  18 |  3 |7966 |   9 | 7.934815e+05 | 7.947806e+05 |   0.16%| unknown
 18.5s|     1 |     0 | 21338 |     - |   179M |   0 |4828 |1194 |1210 |  20 |  4 |7966 |   9 | 7.934815e+05 | 7.947806e+05 |   0.16%| unknown
 18.5s|     1 |     0 | 21338 |     - |   179M |   0 |4828 |1194 |1210 |  20 |  4 |7966 |   9 | 7.934815e+05 | 7.947806e+05 |   0.16%| unknown
 18.7s|     1 |     0 | 21473 |     - |   179M |   0 |4828 |1194 |1212 |  22 |  5 |7966 |   9 | 7.934815e+05 | 7.947806e+05 |   0.16%| unknown
 18.8s|     1 |     0 | 21531 |     - |   179M |   0 |4828 |1194 |1218 |  28 |  6 |7966 |   9 | 7.934815e+05 | 7.947806e+05 |   0.16%| unknown
 18.9s|     1 |     0 | 21588 |     - |   179M |   0 |4828 |1194 |1223 |  33 |  7 |7966 |   9 | 7.934815e+05 | 7.947806e+05 |   0.16%| unknown
 19.0s|     1 |     0 | 21593 |     - |   180M |   0 |4828 |1194 |1226 |  36 |  8 |7966 |   9 | 7.934815e+05 | 7.947806e+05 |   0.16%| unknown
 19.1s|     1 |     0 | 21593 |     - |   180M |   0 |4828 |1178 |1226 |  36 | 10 |7966 |   9 | 7.934815e+05 | 7.947806e+05 |   0.16%| unknown
 19.2s|     1 |     0 | 21623 |     - |   180M |   0 |4828 |1178 |1228 |  38 | 11 |7966 |   9 | 7.934815e+05 | 7.947806e+05 |   0.16%| unknown
 19.3s|     1 |     0 | 21702 |     - |   180M |   0 |4828 |1178 |1116 |  39 | 12 |7966 |   9 | 7.934815e+05 | 7.947806e+05 |   0.16%| unknown
 time | node  | left  |LP iter|LP it/n|mem/heur|mdpt |vars |cons |rows |cuts |sepa|confs|strbr|  dualbound   | primalbound  |  gap   | compl. 
 19.4s|     1 |     0 | 21732 |     - |   180M |   0 |4828 |1178 |1118 |  41 | 13 |7966 |   9 | 7.934815e+05 | 7.947806e+05 |   0.16%| unknown
 19.5s|     1 |     0 | 21793 |     - |   180M |   0 |4828 |1178 |1123 |  46 | 14 |7966 |   9 | 7.934815e+05 | 7.947806e+05 |   0.16%| unknown
 19.6s|     1 |     0 | 21805 |     - |   180M |   0 |4828 |1178 |1125 |  48 | 15 |7966 |   9 | 7.934815e+05 | 7.947806e+05 |   0.16%| unknown
 19.7s|     1 |     0 | 21897 |     - |   180M |   0 |4828 |1178 |1128 |  51 | 16 |7966 |   9 | 7.934815e+05 | 7.947806e+05 |   0.16%| unknown
 19.8s|     1 |     0 | 21984 |     - |   180M |   0 |4828 |1178 |1131 |  54 | 17 |7966 |   9 | 7.934815e+05 | 7.947806e+05 |   0.16%| unknown
 19.9s|     1 |     0 | 22054 |     - |   180M |   0 |4828 |1178 |1099 |  57 | 18 |7966 |   9 | 7.934815e+05 | 7.947806e+05 |   0.16%| unknown
 20.0s|     1 |     0 | 22089 |     - |   181M |   0 |4828 |1178 |1101 |  59 | 19 |7966 |   9 | 7.934815e+05 | 7.947806e+05 |   0.16%| unknown
 20.2s|     1 |     0 | 22248 |     - |   181M |   0 |4828 |1178 |1105 |  63 | 20 |7966 |   9 | 7.935028e+05 | 7.947806e+05 |   0.16%| unknown
 20.3s|     1 |     0 | 22285 |     - |   181M |   0 |4828 |1178 |1109 |  67 | 21 |7966 |   9 | 7.935115e+05 | 7.947806e+05 |   0.16%| unknown
 21.9s|     1 |     0 | 24118 |     - |   181M |   0 |4828 |1178 |1109 |  67 | 21 |  11k|  16 | 7.938355e+05 | 7.947806e+05 |   0.12%| unknown
 21.9s|     1 |     0 | 24118 |     - |   181M |   0 |4828 |1178 |1101 |  67 | 21 |  11k|  16 | 7.938355e+05 | 7.947806e+05 |   0.12%| unknown
 22.0s|     1 |     0 | 24315 |     - |   181M |   0 |4828 |1178 |1109 |  75 | 22 |  11k|  16 | 7.938913e+05 | 7.947806e+05 |   0.11%| unknown
 22.0s|     1 |     0 | 24315 |     - |   181M |   0 |4828 |1178 |1109 |  75 | 22 |  11k|  16 | 7.938913e+05 | 7.947806e+05 |   0.11%| unknown
 22.0s|     1 |     0 | 24342 |     - |   181M |   0 |4828 |1178 |1110 |  76 | 23 |  11k|  16 | 7.938953e+05 | 7.947806e+05 |   0.11%| unknown
 22.0s|     1 |     0 | 24343 |     - |   181M |   0 |4828 |1174 |1091 |  76 | 23 |  11k|  16 | 7.938953e+05 | 7.947806e+05 |   0.11%| unknown
 time | node  | left  |LP iter|LP it/n|mem/heur|mdpt |vars |cons |rows |cuts |sepa|confs|strbr|  dualbound   | primalbound  |  gap   | compl. 
 22.1s|     1 |     0 | 24405 |     - |   181M |   0 |4828 |1174 |1095 |  80 | 24 |  11k|  16 | 7.939091e+05 | 7.947806e+05 |   0.11%| unknown
 22.1s|     1 |     0 | 24405 |     - |   181M |   0 |4828 |1174 |1093 |  80 | 24 |  11k|  16 | 7.939091e+05 | 7.947806e+05 |   0.11%| unknown
 22.2s|     1 |     0 | 24468 |     - |   181M |   0 |4828 |1174 |1095 |  82 | 25 |  11k|  16 | 7.939210e+05 | 7.947806e+05 |   0.11%| unknown
 22.2s|     1 |     0 | 24468 |     - |   181M |   0 |4828 |1174 |1095 |  82 | 25 |  11k|  16 | 7.939210e+05 | 7.947806e+05 |   0.11%| unknown
 22.2s|     1 |     0 | 24468 |     - |   181M |   0 |4828 |1171 |1095 |  82 | 25 |  11k|  16 | 7.939210e+05 | 7.947806e+05 |   0.11%| unknown
 22.3s|     1 |     0 | 24575 |     - |   181M |   0 |4828 |1171 |1100 |  87 | 26 |  11k|  16 | 7.939462e+05 | 7.947806e+05 |   0.11%| unknown
 22.3s|     1 |     0 | 24575 |     - |   181M |   0 |4828 |1171 |1098 |  87 | 26 |  11k|  16 | 7.939462e+05 | 7.947806e+05 |   0.11%| unknown
 22.3s|     1 |     0 | 24645 |     - |   181M |   0 |4828 |1171 |1101 |  90 | 27 |  11k|  16 | 7.939872e+05 | 7.947806e+05 |   0.10%| unknown
 22.3s|     1 |     0 | 24647 |     - |   181M |   0 |4828 |1170 |1101 |  90 | 27 |  11k|  16 | 7.939872e+05 | 7.947806e+05 |   0.10%| unknown
 22.4s|     1 |     0 | 24737 |     - |   181M |   0 |4828 |1170 |1085 |  97 | 28 |  11k|  16 | 7.940107e+05 | 7.947806e+05 |   0.10%| unknown
 22.5s|     1 |     0 | 24769 |     - |   181M |   0 |4828 |1170 |1086 |  98 | 29 |  11k|  16 | 7.940223e+05 | 7.947806e+05 |   0.10%| unknown
 23.3s|     1 |     0 | 25066 |     - |   181M |   0 |4828 |1168 |1086 |  98 | 29 |  11k|  22 | 7.944764e+05 | 7.947806e+05 |   0.04%| unknown
 23.4s|     1 |     0 | 25124 |     - |   181M |   0 |4828 |1168 |1095 | 107 | 30 |  11k|  22 | 7.945480e+05 | 7.947806e+05 |   0.03%| unknown
 23.4s|     1 |     0 | 25185 |     - |   181M |   0 |4828 |1168 |1098 | 110 | 31 |  11k|  22 | 7.945781e+05 | 7.947806e+05 |   0.03%| unknown
 23.4s|     1 |     0 | 25234 |     - |   181M |   0 |4828 |1168 |1101 | 113 | 32 |  11k|  22 | 7.945882e+05 | 7.947806e+05 |   0.02%| unknown
 time | node  | left  |LP iter|LP it/n|mem/heur|mdpt |vars |cons |rows |cuts |sepa|confs|strbr|  dualbound   | primalbound  |  gap   | compl. 
 23.4s|     1 |     0 | 25234 |     - |   181M |   0 |4828 |1168 |1099 | 113 | 32 |  11k|  22 | 7.945882e+05 | 7.947806e+05 |   0.02%| unknown
 23.4s|     1 |     0 | 25234 |     - |   181M |   0 |4828 |1166 |1099 | 113 | 32 |  11k|  22 | 7.945882e+05 | 7.947806e+05 |   0.02%| unknown
 23.5s|     1 |     0 | 25334 |     - |   181M |   0 |4828 |1166 |1081 | 121 | 33 |  11k|  22 | 7.946246e+05 | 7.947806e+05 |   0.02%| unknown
 23.6s|     1 |     0 | 25448 |     - |   181M |   0 |4828 |1166 |1085 | 125 | 34 |  11k|  22 | 7.946808e+05 | 7.947806e+05 |   0.01%| unknown
 23.6s|     1 |     0 | 25453 |     - |   181M |   0 |4828 |1166 |1085 | 125 | 34 |  18k|  26 | 7.947806e+05 | 7.947806e+05 |   0.00%| unknown

SCIP Status        : problem is solved [optimal solution found]
Solving Time (sec) : 23.61
Solving Nodes      : 1 (total of 3 nodes in 3 runs)
Primal Bound       : +7.94780634670747e+05 (204 solutions)
Dual Bound         : +7.94780634670747e+05
Gap                : 0.00 %
Solve Status: optimal
Solve Time: 23.61 seconds
